NAME          
ROWS
 N  OBJ
 L  c1
 L  c2
 L  c3
 L  c4
COLUMNS
    MARKER    'MARKER'                 'INTORG'
    x[1]      c1        196
    x[1]      c2        553
    x[1]      c3        830
    x[1]      c4        87
    x[1]      OBJ       -760
    x[2]      c1        26
    x[2]      c2        238
    x[2]      c3        307
    x[2]      c4        150
    x[2]      OBJ       -199
    x[3]      c1        854
    x[3]      c2        231
    x[3]      c3        706
    x[3]      c4        759
    x[3]      OBJ       -75
    x[4]      c1        852
    x[4]      c2        508
    x[4]      c3        257
    x[4]      c4        922
    x[4]      OBJ       -804
    x[5]      c1        124
    x[5]      c2        839
    x[5]      c3        604
    x[5]      c4        206
    x[5]      OBJ       -695
    x[6]      c1        797
    x[6]      c2        74
    x[6]      c3        809
    x[6]      c4        997
    x[6]      OBJ       -286
    x[7]      c1        370
    x[7]      c2        815
    x[7]      c3        29
    x[7]      c4        447
    x[7]      OBJ       -97
    x[8]      c1        1
    x[8]      c2        964
    x[8]      c3        759
    x[8]      c4        395
    x[8]      OBJ       -509
    x[9]      c1        119
    x[9]      c2        156
    x[9]      c3        58
    x[9]      c4        65
    x[9]      OBJ       -639
    x[10]     c1        163
    x[10]     c2        366
    x[10]     c3        49
    x[10]     c4        622
    x[10]     OBJ       -673
    x[11]     c1        178
    x[11]     c2        224
    x[11]     c3        745
    x[11]     c4        786
    x[11]     OBJ       -860
    x[12]     c1        800
    x[12]     c2        789
    x[12]     c3        993
    x[12]     c4        65
    x[12]     OBJ       -701
    x[13]     c1        446
    x[13]     c2        834
    x[13]     c3        1
    x[13]     c4        168
    x[13]     OBJ       -469
    x[14]     c1        226
    x[14]     c2        174
    x[14]     c3        712
    x[14]     c4        524
    x[14]     OBJ       -585
    x[15]     c1        528
    x[15]     c2        655
    x[15]     c3        69
    x[15]     c4        950
    x[15]     OBJ       -341
    x[16]     c1        467
    x[16]     c2        6
    x[16]     c3        828
    x[16]     c4        105
    x[16]     OBJ       -621
    x[17]     c1        838
    x[17]     c2        473
    x[17]     c3        49
    x[17]     c4        616
    x[17]     OBJ       -515
    x[18]     c1        834
    x[18]     c2        269
    x[18]     c3        997
    x[18]     c4        229
    x[18]     OBJ       -913
    x[19]     c1        260
    x[19]     c2        154
    x[19]     c3        329
    x[19]     c4        658
    x[19]     OBJ       -425
    x[20]     c1        919
    x[20]     c2        758
    x[20]     c3        175
    x[20]     c4        474
    x[20]     OBJ       -48
    x[21]     c1        126
    x[21]     c2        409
    x[21]     c3        18
    x[21]     c4        685
    x[21]     OBJ       -26
    x[22]     c1        95
    x[22]     c2        210
    x[22]     c3        387
    x[22]     c4        402
    x[22]     OBJ       -200
    x[23]     c1        272
    x[23]     c2        804
    x[23]     c3        301
    x[23]     c4        390
    x[23]     OBJ       -692
    x[24]     c1        135
    x[24]     c2        705
    x[24]     c3        812
    x[24]     c4        174
    x[24]     OBJ       -172
    x[25]     c1        24
    x[25]     c2        178
    x[25]     c3        51
    x[25]     c4        781
    x[25]     OBJ       -601
    x[26]     c1        998
    x[26]     c2        436
    x[26]     c3        753
    x[26]     c4        285
    x[26]     OBJ       -221
    x[27]     c1        307
    x[27]     c2        472
    x[27]     c3        126
    x[27]     c4        402
    x[27]     OBJ       -751
    x[28]     c1        473
    x[28]     c2        660
    x[28]     c3        361
    x[28]     c4        622
    x[28]     OBJ       -9
    x[29]     c1        549
    x[29]     c2        721
    x[29]     c3        482
    x[29]     c4        3
    x[29]     OBJ       -527
    x[30]     c1        20
    x[30]     c2        748
    x[30]     c3        49
    x[30]     c4        667
    x[30]     OBJ       -741
    x[31]     c1        759
    x[31]     c2        320
    x[31]     c3        568
    x[31]     c4        76
    x[31]     OBJ       -198
    x[32]     c1        697
    x[32]     c2        995
    x[32]     c3        63
    x[32]     c4        602
    x[32]     OBJ       -425
    x[33]     c1        191
    x[33]     c2        440
    x[33]     c3        939
    x[33]     c4        305
    x[33]     OBJ       -521
    x[34]     c1        393
    x[34]     c2        368
    x[34]     c3        231
    x[34]     c4        942
    x[34]     OBJ       -524
    x[35]     c1        132
    x[35]     c2        456
    x[35]     c3        57
    x[35]     c4        484
    x[35]     OBJ       -1
    x[36]     c1        158
    x[36]     c2        390
    x[36]     c3        35
    x[36]     c4        873
    x[36]     OBJ       -394
    x[37]     c1        37
    x[37]     c2        394
    x[37]     c3        765
    x[37]     c4        794
    x[37]     OBJ       -876
    x[38]     c1        445
    x[38]     c2        1
    x[38]     c3        979
    x[38]     c4        422
    x[38]     OBJ       -140
    x[39]     c1        94
    x[39]     c2        691
    x[39]     c3        670
    x[39]     c4        134
    x[39]     OBJ       -85
    x[40]     c1        336
    x[40]     c2        405
    x[40]     c3        309
    x[40]     c4        680
    x[40]     OBJ       -486
    x[41]     c1        115
    x[41]     c2        773
    x[41]     c3        841
    x[41]     c4        777
    x[41]     OBJ       -992
    x[42]     c1        73
    x[42]     c2        282
    x[42]     c3        751
    x[42]     c4        70
    x[42]     OBJ       -823
    x[43]     c1        732
    x[43]     c2        17
    x[43]     c3        360
    x[43]     c4        446
    x[43]     OBJ       -515
    x[44]     c1        673
    x[44]     c2        532
    x[44]     c3        565
    x[44]     c4        935
    x[44]     OBJ       -295
    x[45]     c1        959
    x[45]     c2        628
    x[45]     c3        842
    x[45]     c4        442
    x[45]     OBJ       -864
    x[46]     c1        724
    x[46]     c2        672
    x[46]     c3        628
    x[46]     c4        946
    x[46]     OBJ       -582
    x[47]     c1        132
    x[47]     c2        586
    x[47]     c3        608
    x[47]     c4        36
    x[47]     OBJ       -872
    x[48]     c1        626
    x[48]     c2        89
    x[48]     c3        403
    x[48]     c4        27
    x[48]     OBJ       -555
    x[49]     c1        175
    x[49]     c2        701
    x[49]     c3        106
    x[49]     c4        884
    x[49]     OBJ       -554
    x[50]     c1        201
    x[50]     c2        44
    x[50]     c3        316
    x[50]     c4        621
    x[50]     OBJ       -70
RHS
    rhs       c1        9824
    rhs       c2        11604
    rhs       c3        11341
    rhs       c4        12066
RANGES
BOUNDS
 BV bounds    x[1]
 BV bounds    x[2]
 BV bounds    x[3]
 BV bounds    x[4]
 BV bounds    x[5]
 BV bounds    x[6]
 BV bounds    x[7]
 BV bounds    x[8]
 BV bounds    x[9]
 BV bounds    x[10]
 BV bounds    x[11]
 BV bounds    x[12]
 BV bounds    x[13]
 BV bounds    x[14]
 BV bounds    x[15]
 BV bounds    x[16]
 BV bounds    x[17]
 BV bounds    x[18]
 BV bounds    x[19]
 BV bounds    x[20]
 BV bounds    x[21]
 BV bounds    x[22]
 BV bounds    x[23]
 BV bounds    x[24]
 BV bounds    x[25]
 BV bounds    x[26]
 BV bounds    x[27]
 BV bounds    x[28]
 BV bounds    x[29]
 BV bounds    x[30]
 BV bounds    x[31]
 BV bounds    x[32]
 BV bounds    x[33]
 BV bounds    x[34]
 BV bounds    x[35]
 BV bounds    x[36]
 BV bounds    x[37]
 BV bounds    x[38]
 BV bounds    x[39]
 BV bounds    x[40]
 BV bounds    x[41]
 BV bounds    x[42]
 BV bounds    x[43]
 BV bounds    x[44]
 BV bounds    x[45]
 BV bounds    x[46]
 BV bounds    x[47]
 BV bounds    x[48]
 BV bounds    x[49]
 BV bounds    x[50]
ENDATA
